c read Graph
c width = 412
c time = 5 ms
c width = 240
c time = 148 ms
c width = 26
c time = 346 ms
c width = 24
c time = 474 ms
c width = 23
c time = 2511 ms
c width = 22
c time = 52225 ms
c width = 21
c time = 72983 ms
c width = 20
c time = 204120 ms
c width = 20
c time = 299899 ms
s td 346 21 414
b 1 27 385
b 2 42 397
b 3 70 397 398
b 4 111 398 399
b 5 46 399 400
b 6 105 400 401
b 7 2 401 402
b 8 30 370
b 9 15 305
b 10 29 321
b 11 5 268
b 12 148 150
b 13 48 391
b 14 51 109 396
b 15 149 395 396
b 16 41 75 414
b 17 53 386 410 411
b 18 82 130 229 230
b 19 87 390 408 409
b 20 146 306 307 371
b 21 81 95 152 153
b 22 9 156 157 158
b 23 116 158 159 161
b 24 76 161 162 164
b 25 94 164 165 167
b 26 60 171 172 174
b 27 85 174 175 176
b 28 127 176 177 179
b 29 80 180 181 183
b 30 59 183 184 188
b 31 12 188 189 190
b 32 7 197 198 199
b 33 117 205 206 207
b 34 68 208 209 213
b 35 58 213 214 216
b 36 37 219 220 222
b 37 39 223 224 226
b 38 50 227 228 229
b 39 63 232 233 235
b 40 145 235 236 238
b 41 128 238 239 243
b 42 54 243 244 245
b 43 130 245 246 248
b 44 123 253 254 259
b 45 16 259 260 261
b 46 115 138 261 262
b 47 81 95 269 270
b 48 125 306 307 371
b 49 81 117 322 323
b 50 44 68 406 407
b 51 390 408 409 410
b 52 32 60 411 412
b 53 60 85 171 174 176
b 54 60 84 85 169 171 176 358 359
b 55 60 63 84 85 136 138 169 176 197 205 261 294 358 359
b 56 60 63 84 125 136 138 140 141 169 176 193 197 205 261 290 294 352 358
b 57 60 63 125 136 140 141 169 176 193 205 261 290 352 358
b 58 16 44 60 63 92 125 136 140 141 169 176 190 193 205 261 288 290 348 352
b 59 16 44 57 92 140 190 193 288 290 348 352
b 60 16 57 288 289 290
b 61 57 92 140 190 192 193
b 62 57 92 190 191 192
b 63 16 44 57 92 348 351 352
b 64 16 57 92 348 349 351
b 65 57 92 349 350 351
b 66 13 16 39 44 60 63 92 125 136 140 141 164 169 176 190 205 261 286 288 345 348
b 67 13 39 97 164 169 286 288 345 348
b 68 13 39 97 164 169 345 346 348
b 69 39 97 346 347 348
b 70 13 97 164 167 169 345 346
b 71 94 164 167 345 346
b 72 13 97 167 168 169
b 73 39 97 286 287 288
b 74 13 16 39 44 60 63 92 123 125 134 136 140 141 164 176 190 205 252 261 286 345
b 75 13 39 44 60 63 92 103 123 125 134 136 140 141 164 176 190 205 252 284 286 345
b 76 13 39 44 60 63 92 103 123 125 134 136 140 141 164 176 190 205 252 284 343 345
b 77 12 13 39 44 60 63 92 103 125 134 136 140 141 164 176 190 205 252 282 284 343
b 78 12 13 39 44 60 63 92 103 125 134 136 140 141 164 176 190 205 252 282 341 343
b 79 12 134 341 342 343
b 80 12 13 39 44 60 63 92 103 125 136 140 141 164 176 188 190 205 252 282 341
b 81 13 39 44 60 63 92 103 125 136 140 141 164 176 188 190 205 252 282 341
b 82 13 39 44 60 63 92 103 125 136 140 141 164 176 188 205 248 252 280 282 337 341
b 83 248 252 280 282 337 341
b 84 13 39 44 60 63 92 103 125 136 140 141 164 176 188 205 230 235 248 280 337 411
b 85 60 63 136 230 232 235 411
b 86 60 136 230 231 232 411
b 87 32 60 231 232 411
b 88 106 120 248 252 280 282 337 341
b 89 106 120 280 281 282
b 90 106 120 248 252 337 339 341
b 91 106 120 339 340 341
b 92 106 120 248 250 252 337 339
b 93 248 249 250 337 338 339
b 94 78 249 250 337 338
b 95 133 248 249 338 339
b 96 106 120 250 251 252
b 97 12 134 282 283 284
b 98 103 123 343 344 345
b 99 103 123 284 285 286
b 100 16 123 134 252 259 261
b 101 123 134 252 253 259
b 102 84 125 138 140 141 193 197 290 293 294 352 358
b 103 84 125 138 140 141 193 197 290 293 352 357 358
b 104 6 84 125 138 140 141 193 197 290 293 352 357 358
b 105 6 84 125 138 140 352 355 357
b 106 6 138 140 352 354 355
b 107 6 140 352 353 354
b 108 84 125 355 356 357
b 109 6 125 141 193 195 197 357 358
b 110 141 195 196 197 357 358
b 111 19 195 196 357 358
b 112 6 125 193 194 195
b 113 6 138 140 290 292 293
b 114 6 140 290 291 292
b 115 60 63 85 136 138 197 205 261 294 297 359
b 116 60 63 136 294 296 297
b 117 63 136 294 296 297
b 118 63 136 294 295 296
b 119 60 63 85 136 138 197 205 261 297 298 299 359
b 120 60 63 85 136 138 197 205 261 297 298 299 359 364
b 121 60 63 85 136 138 197 200 205 261 297 298 299 359 364
b 122 7 60 63 136 197 200 297 298 299 359 364
b 123 7 60 63 101 136 197 200 298 299 359 364
b 124 7 60 63 101 136 359 361 364
b 125 7 136 359 360 361
b 126 60 63 101 361 363 364
b 127 60 63 361 362 363
b 128 7 101 197 199 200
b 129 85 115 138 200 205 261 299 364
b 130 25 85 115 200 205 299 364 366
b 131 25 85 115 200 205 299 301 366
b 132 25 85 299 300 301
b 133 25 98 115 200 202 205 301 366
b 134 1 62 72 98 115 202 205 301 366
b 135 1 62 72 98 115 301 303
b 136 1 62 72 303 304
b 137 98 115 301 302 303
b 138 1 62 72 98 115 366 368
b 139 62 72 115 368 369
b 140 1 98 366 367 368
b 141 1 62 72 202 203 205
b 142 62 72 203 204 205
b 143 25 98 200 201 202
b 144 25 85 364 365 366
b 145 84 169 170 171 358 359
b 146 104 170 171 358 359
b 147 4 13 39 44 54 60 67 68 92 103 125 128 140 164 176 188 205 208 229 280 337
b 148 4 54 59 67 68 164 176 183 188 205 208 280 337
b 149 13 39 44 54 60 68 92 103 125 128 140 164 176 188 205 229 230 238 248 280 337
b 150 54 128 130 229 230 238 248
b 151 54 128 130 238 245 248
b 152 54 128 238 243 245
b 153 13 39 44 60 68 92 103 125 128 140 164 176 188 205 230 238 248 280 337 388 410
b 154 13 39 44 60 92 103 125 140 164 176 188 205 230 235 238 248 280 337 387 388 410
b 155 13 39 44 60 92 103 125 140 141 164 176 188 205 230 235 248 280 337 387 410 411
b 156 141 386 387 410 411
b 157 13 44 68 128 140 388 408 410
b 158 44 68 140 407 408
b 159 13 128 388 390 408 410
b 160 13 128 388 389 390
b 161 145 235 238 387 388
b 162 4 54 59 67 68 86 154 164 176 183 205 208 273 280 331 337
b 163 4 9 34 59 68 76 86 116 154 164 273 280 331 337
b 164 4 9 34 76 116 154 156 164
b 165 9 76 116 156 161 164
b 166 9 116 156 158 161
b 167 4 34 154 155 156
b 168 9 34 59 68 76 86 116 273 277 280
b 169 9 34 68 86 273 275 277
b 170 9 34 275 276 277
b 171 68 86 273 274 275
b 172 59 76 116 277 279 280
b 173 59 116 277 278 279
b 174 4 9 34 59 76 116 331 334 337
b 175 59 76 116 334 336 337
b 176 59 116 334 335 336
b 177 4 9 34 331 333 334
b 178 4 34 331 332 333
b 179 54 67 68 86 127 154 176 183 205 208 273 327 331
b 180 67 117 127 154 205 208 273 327
b 181 67 117 205 207 208
b 182 67 117 127 154 273 325 327
b 183 67 117 127 154 271 273 325
b 184 81 90 95 117 154 271 325
b 185 81 90 95 270 271
b 186 81 90 95 117 324 325
b 187 81 95 117 323 324
b 188 81 90 95 153 154
b 189 67 127 271 272 273
b 190 67 127 325 326 327
b 191 54 68 86 127 176 183 327 329 331
b 192 54 86 127 176 180 183 329 331
b 193 86 127 176 179 180
b 194 54 180 183 329 330 331
b 195 80 180 183 329 330
b 196 68 86 327 328 329
b 197 4 13 39 43 44 54 60 65 67 68 92 103 125 128 140 208 222 229 317 381
b 198 43 54 58 60 65 67 68 92 103 125 128 208 216 222 317 381
b 199 43 54 58 60 65 67 92 103 125 128 216 222 317 374 381
b 200 54 58 60 65 67 92 128 374 378 381
b 201 60 65 67 128 374 376 378
b 202 65 128 376 377 378
b 203 60 67 374 375 376
b 204 54 58 92 378 380 381
b 205 58 92 378 379 380
b 206 43 54 58 60 65 67 92 103 125 128 216 222 310 317 374
b 207 54 58 60 65 67 92 128 310 314 317
b 208 60 65 67 128 310 312 314
b 209 60 67 310 311 312
b 210 65 128 312 313 314
b 211 54 58 92 314 316 317
b 212 58 92 314 315 316
b 213 43 103 125 216 218 222 310 374
b 214 3 37 103 125 218 222 310 374
b 215 3 37 218 219 222
b 216 3 37 103 125 310 372 374
b 217 3 37 372 373 374
b 218 3 37 103 125 308 310 372
b 219 103 125 308 371 372
b 220 103 125 307 308 371
b 221 3 37 308 309 310
b 222 43 103 216 217 218
b 223 58 68 208 213 216
b 224 4 13 39 43 44 50 65 140 222 229 317 381
b 225 39 44 50 65 222 226 229
b 226 44 50 226 227 229
b 227 39 65 222 223 226
b 228 4 13 43 50 140 317 319
b 229 13 140 317 318 319
b 230 4 43 50 319 320
b 231 4 13 43 50 140 381 383
b 232 13 140 381 382 383
b 233 4 43 50 383 384
b 234 21 409 410
b 235 99 260 261
b 236 22 258 259
b 237 254 258 259
b 238 73 257 258
b 239 254 257 258
b 240 69 256 257
b 241 254 256 257
b 242 17 255 256
b 243 254 255 256
b 244 113 254 255
b 245 126 247 248
b 246 246 247 248
b 247 47 246 247
b 248 64 244 245
b 249 35 242 243
b 250 239 242 243
b 251 11 241 242
b 252 239 241 242
b 253 77 240 241
b 254 239 240 241
b 255 122 239 240
b 256 108 237 238
b 257 236 237 238
b 258 23 236 237
b 259 52 234 235
b 260 233 234 235
b 261 45 233 234
b 262 131 228 229
b 263 8 225 226
b 264 224 225 226
b 265 74 224 225
b 266 139 221 222
b 267 220 221 222
b 268 102 220 221
b 269 107 215 216
b 270 214 215 216
b 271 14 214 215
b 272 132 212 213
b 273 209 212 213
b 274 91 211 212
b 275 209 211 212
b 276 36 210 211
b 277 209 210 211
b 278 89 209 210
b 279 137 206 207
b 280 135 198 199
b 281 71 189 190
b 282 143 187 188
b 283 184 187 188
b 284 93 186 187
b 285 184 186 187
b 286 20 185 186
b 287 184 185 186
b 288 119 184 185
b 289 83 182 183
b 290 181 182 183
b 291 100 181 182
b 292 49 178 179
b 293 177 178 179
b 294 110 177 178
b 295 66 175 176
b 296 114 173 174
b 297 172 173 174
b 298 18 172 173
b 299 144 166 167
b 300 165 166 167
b 301 118 165 166
b 302 79 163 164
b 303 162 163 164
b 304 147 162 163
b 305 33 160 161
b 306 159 160 161
b 307 26 159 160
b 308 10 157 158
b 309 146 370 371
b 310 125 305 306
b 311 24 264 265
b 312 115 264 265
b 313 55 266 267
b 314 115 266 267
b 315 112 115 267
b 316 115 265 266
b 317 129 265 266
b 318 31 263 264
b 319 115 263 264
b 320 56 262 263
b 321 115 262 263
b 322 61 87 390
b 323 82 392 393
b 324 96 392 393
b 325 82 130 394
b 326 130 394 395
b 327 82 393 394
b 328 142 393 394
b 329 82 391 392
b 330 81 321 322
b 331 81 268 269
b 332 38 151 152
b 333 81 151 152
b 334 81 150 151
b 335 28 405 406
b 336 68 405 406
b 337 40 404 405
b 338 68 404 405
b 339 68 403 404
b 340 121 403 404
b 341 68 402 403
b 342 60 412 413
b 343 88 412 413
b 344 60 413 414
b 345 53 385 386
b 346 124
1 345
1 346
2 3
3 4
4 5
5 6
6 7
7 341
8 309
9 310
10 330
11 331
12 334
13 329
14 15
15 326
16 344
17 345
17 156
18 325
18 150
19 322
19 51
20 309
20 48
21 333
21 188
22 308
22 166
23 306
23 166
24 303
24 165
25 300
25 71
26 297
26 53
27 295
27 53
28 293
28 193
29 290
29 195
30 283
30 148
31 281
31 80
32 280
32 128
33 279
33 181
34 273
34 223
35 270
35 223
36 267
36 215
37 264
37 227
38 262
38 226
39 260
39 85
40 257
40 161
41 250
41 152
42 248
42 152
43 246
43 151
44 237
44 101
45 235
45 100
46 321
46 129
47 331
47 185
48 310
48 220
49 330
49 187
50 336
50 158
51 234
51 159
52 342
52 87
53 54
54 145
54 55
55 115
55 56
56 102
56 58
56 57
58 66
58 59
59 61
59 63
59 60
61 62
63 64
64 65
66 74
66 67
67 73
67 68
68 70
68 69
70 72
70 71
74 100
74 75
75 99
75 76
76 98
76 77
77 97
77 78
78 80
78 79
80 82
80 81
82 88
82 84
82 83
84 155
84 85
85 86
86 87
88 90
88 89
90 92
90 91
92 93
92 96
93 95
93 94
100 101
102 103
103 104
104 105
104 109
104 113
105 108
105 106
106 107
109 112
109 110
110 111
113 114
115 116
115 119
116 118
116 117
119 120
120 121
121 129
121 122
122 123
123 128
123 124
124 125
124 126
126 127
129 130
130 144
130 131
131 132
131 133
133 143
133 134
134 135
134 138
134 141
135 137
135 136
138 140
138 139
141 142
145 146
147 197
147 148
147 149
148 162
149 150
149 153
150 151
151 152
153 154
153 157
154 161
154 155
155 156
157 159
157 158
159 160
162 163
162 179
163 174
163 168
163 164
164 167
164 165
165 166
168 172
168 169
169 171
169 170
172 173
174 175
174 177
175 176
177 178
179 191
179 180
180 182
180 181
182 190
182 183
183 184
183 189
184 186
184 188
184 185
186 187
191 196
191 192
192 194
192 193
194 195
197 224
197 198
198 223
198 199
199 206
199 200
200 204
200 201
201 203
201 202
204 205
206 213
206 207
207 208
207 211
208 210
208 209
211 212
213 222
213 214
214 216
214 215
216 218
216 217
218 221
218 219
219 220
224 228
224 231
224 225
225 227
225 226
228 230
228 229
231 233
231 232
236 237
237 239
238 239
239 241
240 241
241 243
242 243
243 244
245 246
246 247
249 250
250 252
251 252
252 254
253 254
254 255
256 257
257 258
259 260
260 261
263 264
264 265
266 267
267 268
269 270
270 271
272 273
273 275
274 275
275 277
276 277
277 278
282 283
283 285
284 285
285 287
286 287
287 288
289 290
290 291
292 293
293 294
296 297
297 298
299 300
300 301
302 303
303 304
305 306
306 307
311 312
312 319
312 316
313 314
314 316
314 315
316 317
318 319
319 321
320 321
323 329
323 327
323 324
325 327
325 326
327 328
332 333
333 334
335 336
336 338
337 338
338 339
339 341
339 340
342 344
342 343
